;; ===================== PROJECTED CANON (QE) =====================
;; Each clause below is entailed by Proj = ∃W.F over the canonical vocabulary.
;; Units appear first for clarity; OR-clauses (SAT-filtered) follow.
;; ==================================================================

;; Unit Bool constraints (entailed)
(assert patient_has_diagnosis_of_multi_vessel_coronary_artery_disease_now)
(assert patient_has_finding_of_coronary_artery_stenosis_now)
